Route 1: 2 45 5 39 36 42 95 62 61 44 40 38 72 71 37 41 81 43 7 55 46 3 4 60 17 77 58 25 48
Route 2: 65 52 59 75 63 33 27 29 30 28 31 67 76 18 19 84 51 22 49 21 10 24 97 13 74 32 26 89
Route 3: 12 11 15 73 86 99 88 87 9 6 94 66 68 35 54 91 34 50 100
Route 4: 83 92 98 47 14 69 82 23 64 16 78 79 8 53 90 20 57 85 56 93 80 96 1 70
Vehicles: 4
Distance: 2319.59
